N = 7;
Capacity = 17;
Demand = [7, 7, 3, 7, 9, 3, 10];
Distance = [|
  0, 38, 57, 65, 31, 53, 65, 49
| 38, 0, 49, 65, 41, 48, 102, 77
| 57, 49, 0, 18, 29, 5, 97, 59
| 65, 65, 18, 0, 34, 18, 92, 52
| 31, 41, 29, 34, 0, 24, 72, 39
| 53, 48, 5, 18, 24, 0, 92, 54
| 65, 102, 97, 92, 72, 92, 0, 40
| 49, 77, 59, 52, 39, 54, 40, 0
|];
